
/* nova situação */
max: 110 x1 + 150 x2 + 90 x3 - 5yA1 - 7yA2 - 6yB1 - 9 yB2;

4 x1 + 6 x2 + 2 x3 <= 50 + 6 yA1 + 10 yA2;
5 x1 + 3 x2 + 4 x3 <= 60 + 4 yB1 + 10 yB2;

50 yA1 + 70 yA2 + 60 yB1 + 90 yB2 <= 140;

yA1 + yA2 <= 1;
yB1 + yB2 <= 1;

bin yA1, yA2, yB1, yB2;



/* situação actual
max: 110 x1 + 150 x2 + 90 x3 ;

4 x1 + 6 x2 + 2 x3 <= 50 ;
5 x1 + 3 x2 + 4 x3 <= 60 ;

*/

